84
Route #1: 1 38 
Route #2: 2 27 48 
Route #3: 3 23 44 
Route #4: 4 17 30 
Route #5: 5 28 40 
Route #6: 6 37 42 
Route #7: 7 43 
Route #8: 8 25 56 
Route #9: 9 39 
Route #10: 10 20 46 58 
Route #11: 11 53 
Route #12: 12 33 61 
Route #13: 13 51 
Route #14: 14 50 
Route #15: 15 45 
Route #16: 16 31 72 
Route #17: 18 36 
Route #18: 19 
Route #19: 21 47 
Route #20: 22 49 73 
Route #21: 24 41 64 77 
Route #22: 26 52 79 
Route #23: 29 66 
Route #24: 32 54 
Route #25: 34 78 
Route #26: 35 57 83 
Route #27: 55 96 
Route #28: 59 106 
Route #29: 60 91 
Route #30: 62 87 126 
Route #31: 63 88 110 
Route #32: 65 92 
Route #33: 67 75 115 
Route #34: 68 111 
Route #35: 69 108 128 
Route #36: 70 103 
Route #37: 71 109 
Route #38: 74 97 116 
Route #39: 76 100 
Route #40: 80 104 118 
Route #41: 81 119 
Route #42: 82 120 
Route #43: 84 121 
Route #44: 85 124 
Route #45: 86 101 125 
Route #46: 89 154 
Route #47: 90 122 
Route #48: 93 117 129 157 
Route #49: 94 130 
Route #50: 95 114 123 151 
Route #51: 98 127 136 
Route #52: 99 144 
Route #53: 102 131 147 
Route #54: 105 146 
Route #55: 107 162 
Route #56: 112 
Route #57: 113 159 
Route #58: 132 158 179 
Route #59: 133 150 168 178 192 
Route #60: 134 170 
Route #61: 135 176 
Route #62: 137 174 
Route #63: 138 171 
Route #64: 139 167 190 
Route #65: 140 172 180 198 
Route #66: 141 183 
Route #67: 142 181 
Route #68: 143 182 
Route #69: 145 169 196 
Route #70: 148 193 
Route #71: 149 194 
Route #72: 152 199 
Route #73: 153 184 
Route #74: 155 188 
Route #75: 156 189 
Route #76: 160 185 
Route #77: 161 175 187 
Route #78: 163 200 
Route #79: 164 195 
Route #80: 165 191 
Route #81: 166 197 
Route #82: 173 
Route #83: 177 
Route #84: 186 
Cost 84.0
